NAME          BLANK   
ROWS
 N  OBJROW
 L  R0000000
COLUMNS
    C0000000  OBJROW     -550.         R0000000  66.         
    C0000001  OBJROW     -211.         R0000000  953.        
    C0000002  OBJROW     -415.         R0000000  200.        
    C0000003  OBJROW     -235.         R0000000  75.         
    C0000004  OBJROW     -543.         R0000000  230.        
    C0000005  OBJROW     -796.         R0000000  957.        
    C0000006  OBJROW     -895.         R0000000  942.        
    C0000007  OBJROW     -466.         R0000000  101.        
    C0000008  OBJROW     -432.         R0000000  406.        
    C0000009  OBJROW     -842.         R0000000  821.        
    C0000010  OBJROW     -705.         R0000000  38.         
    C0000011  OBJROW     -682.         R0000000  851.        
    C0000012  OBJROW     -183.         R0000000  984.        
    C0000013  OBJROW     -316.         R0000000  3.          
    C0000014  OBJROW     -375.         R0000000  536.        
    C0000015  OBJROW     -4.           R0000000  51.         
    C0000016  OBJROW     -439.         R0000000  830.        
    C0000017  OBJROW     -388.         R0000000  428.        
    C0000018  OBJROW     -159.         R0000000  351.        
    C0000019  OBJROW     -66.          R0000000  866.        
RHS
    RHS       R0000000  4844.       
BOUNDS
 BV BOUND     C0000000  1.          
 BV BOUND     C0000001  1.          
 BV BOUND     C0000002  1.          
 BV BOUND     C0000003  1.          
 BV BOUND     C0000004  1.          
 BV BOUND     C0000005  1.          
 BV BOUND     C0000006  1.          
 BV BOUND     C0000007  1.          
 BV BOUND     C0000008  1.          
 BV BOUND     C0000009  1.          
 BV BOUND     C0000010  1.          
 BV BOUND     C0000011  1.          
 BV BOUND     C0000012  1.          
 BV BOUND     C0000013  1.          
 BV BOUND     C0000014  1.          
 BV BOUND     C0000015  1.          
 BV BOUND     C0000016  1.          
 BV BOUND     C0000017  1.          
 BV BOUND     C0000018  1.          
 BV BOUND     C0000019  1.          
ENDATA
